5821 5592 5346 4942 4921 4585 4474 4392 4308 4202 4008 3802 3626 3506 3416 3301 3171 3101 3005 2925 2880 2788 2678 2636 2592 2570 2513 2480 2398 2344 2326 2307 2268 2239 2217 2197 2177 2143 2134 2100 2092 2067 2059 2039 2020 1962 1928 1886 1872 1822 1816 1812 1794 1794 1774 1774 1768 1760 1746 1739 1729 1722 1720 1713 1709 1703 1697 1692 1686 1682 1682 1679 1677 1677 1676 1675 1675 1672 1670 1659 1655 1655 1651 1645 1645 1637 1637 1634 1624 1624 1620 1619 1613 1613 1611 1608 1593 1564 1564 1555 1555 1555 1551 1551 1551 1547 1547 1544 1544 1544 1544 1542 1542 1542 1540 1540 1540 1540 1539 1539 1539 1537 1537 1537 1536 1536 1536 1536 1536 1536 1536 1536 1536 1536 1520 1520 1520 1520 1520 1520 1520 1520 1520 1520 1520 1520 1520 1520 1520 1520 1520 1520 1520 1520 1520 1520 1520 1520 1520 1520 1520 1520 1520 1520 1520 1520 1520 1520 1520 1520 1520 1520 1520 1520 1520 1520 1520 1520 1520 1520 1520 1520 1520 1520 1520 1520 1520 1520 1520 1520 1520 1520 1520 1520 1520 1520 1520 1520 1520 1520 1520 1520 1520 1520 1520 1520 1520 1520 1520 1520 1520 1520 1520 1520 1520 1520 1520 1520 1520 1520 1520 1520 1520 1520 1520 1520 1520 1520 1520 1520 1520 1520 1520 1520 1520 1520 1520 1520 1520 1520 1520 1520 1520 1520 1520 1520 1520 1520 1520 1520 1520 1520 1520 1520 1520 1520 1520 1520 1520 1520 1520 1520 1520 1520 1520 1520 1520 1520 1520 1520 1520 1520 1520 1520 1520 1520 1520 1520 1520 1520 1520 1520 1520 1520 1520 1520 1520 1520 1520 1520 1520 1520 1520 1520 1520 1520 1520 1520 1520 1520 1520 1520 1520 1520 1520 1520 1520 1520 1520 1520 1520 1520 1520 1520 1520 1520 1520 1520 1520 1517 1517 1513 1507 1507 1501 1501 1499 1499 1493 1493 1493 1493 1493 1493 1493 1493 1493 1493 1493 1493 1493 1493 1493 1493 1493 1493 1493 1493 1493 1493 1493 1493 1493 1493 1493 1493 1493 1493 1493 1493 1493 1493 1493 1493 1493 1493 1493 1493 1493 1493 1493 1493 1493 1493 1493 1493 1493 1493 1493 1493 1493 1493 1493 1493 1493 1493 1493 1493 1493 1493 1493 1493 1493 1493 1493 1493 1493 1493 1493 1493 1493 1493 1493 1493 1493 1493 1493 1493 1493 1493 1493 1493 1493 1493 1493 1493 1493 1493 1493 1493 1493 1493 1493 1493 1493 1493 1493 1493 1493 1493 1493 1493 1493 1493 1493 1493 1493 1493 1493 1493 1493 1493 1493 1493 1493 1493 1493 1493 1493 1493 1493 1493 1493 1493 1493 1493 1493 1493 1493 1493 1493 1493 1493 1493 1493 1493 1493 1493 1493 1493 1493 1493 1493 1493 1493 1493 1493 1493 1493 1493 1493 1493 1493 1493 1493 1493 1493 1493 1493 1493 1493 1493 1493 1493 1493 1493 1493 1493 1493 1493 1493 1493 1493 1493 1493 1493 1493 1493 1493 1493 1493 1493 1493 1493 1493 1493 1493 1493 1493 1493 1493 1493 1493 1493 1493 1493 1493 1493 1493 1493 1493 1493 1493 1493 1493 1493 1493 1493 1493 1493 1493 1493 1493 1493 1493 1493 1493 1493 1493 1493 1493 1493 1493 1493 1493 1493 1493 1493 1493 1493 1493 1493 1493 1493 1493 1493 1493 1493 1493 1493 1493 1493 1493 1493 1493 1493 1493 1493 1493 1493 1493 1493 1493 1493 1493 1493 1493 1493 1493 1493 1493 1493 1493 1493 1493 1493 1493 1493 1493 1493 1493 1493 1493 1493 1493 1493 1493 1493 1493 1493 1493 1493 1493 1493 1493 1493 1493 1493 1493 1493 1493 1493 1493 1493 1493 1493 1493 1493 1493 1493 1493 1493 1493 1493 1493 1493 1493 1493 1493 1493 1493 1493 1493 1493 1493 1493 1493 1493 1493 1493 1493 1493 1493 1493 1493 1493 1493 1493 1493 1493 1493 1493 1493 1493 1493 1493 1493 1493 1493 1493 1493 1493 1493 1493 1493 1493 1493 1493 1493 1493 1493 1493 1493 1493 1493 1493 1493 1493 1493 1493 1493 1493 1493 1493 1493 1493 1493 1493 1493 1493 1493 1493 1493 1493 1493 1493 1493 1493 1493 1493 1493 1493 1493 1493 1493 1493 1493 1493 1493 1493 1493 1493 1493 1493 1493 1493 1493 1493 1493 1493 1493 1493 1493 1493 1493 1493 1493 1493 1493 1493 1493 1493 1493 1493 1493 1493 1493 1493 1493 1493 1493 1493 1493 1493 1493 1493 1493 1493 1493 1493 1493 1493 1493 1493 1493 1493 1493 1493 1493 1493 1493 1493 1493 1493 1493 1493 1493 1493 1493 1493 1493 1493 1493 1493 1493 1493 1493 1493 1493 1493 1493 1493 1493 1493 1493 1493 1493 1493 1493 1493 1493 1493 1493 1493 1493 1493 1493 1493 1493 1493 1493 1493 1493 1493 1493 1493 1493 1493 1493 1493 1493 1493 1493 1493 1493 1493 1493 1493 1493 1493 1493 1493 1493 1493 1493 1493 1493 1493 1493 1493 1493 1493 1493 1493 1493 1493 1493 1493 1493 1493 1493 1493 1493 1493 1493 1493 1493 1493 1493 1493 1493 1493 1493 1493 1493 1493 1493 1493 1493 1493 1493 1493 1493 1493 1493 1493 1493 1493 1493 1493 1493 1493 1493 1493 1493 1493 1493 1493 1493 1493 1493 1493 1493 1493 1493 1493 1493 1493 1493 1493 1493 1493 1493 1493 1493 1493 1493 1493 1493 1493 1493 1493 1493 1493 1493 1493 1493 1493 1493 1493 1493 1493 1493 1493 1493 1493 1493 1493 1493 1493 1493 1493 1493 1493 1493 1493 1493 1493 1493 1493 1493 1493 1493 1493 1493 1493 1493 1493 1493 1493 1493 1493 1493 1493 1493 1493 1493 1493 1493 1493 1493 1493 1493 1493 1493 1493 1493 1493 1493 1493 1493 1493 1493 1493 1493 1493 1493 1493 1493 1493 1493 1493 1493 1493 1493 1493 1493 1493 1493 1493 1493 1493 1493 1493 1493 1493 1493 1493 1493 1493 1493 1493 1493 1493 1493 1493 1493 1493 1493 1493 1493 1493 1493 1493 1493 1493 1493 1493 1493 1493 1493 1493 1493 1493 1493 1493 1493 1493 1493 1493 1493 1493 1493 1493 1493 1493 1493 1493 1493 1493 1493 1493 1493 1493 1493 1493 1493 1493 1493 1493 1493 1493 1493 1493 1493 1493 1493 1493 1493 1493 1493 1493 1493 1493 1493 1493 1493 1493 1493 1493 1493 1493 1493 1493 1493 1493 1493 1493 1493 1493 1493 1493 1493 1493 1493 1493 1493 1493 1493 1493 1493 1493 1493 1493 1493 1493 1493 1493 1493 1493 1493 1493 1493 1493 1493 1493 1493 1493 1493 1493 1493 1493 1493 1493 1493 1493 1493 1493 1493 1493 1493 1493 1493 1493 1493 1493 1493 1493 1493 1493 1493 1493 1493 1493 1493 1493 1493 1493 1493 1493 1493 1493 1493 1493 1493 1493 1493 1493 1493 1493 1493 1493 1493 1493 1493 1493 1493 1493 1493 1493 1493 1493 1493 1493 1493 1493 1493 1493 1493 1493 1493 1493 1493 1493 1493 1493 1493 1493 1493 1493 1493 1493 1493 1493 1493 1493 1493 1493 1493 1493 1493 1493 1493 1493 1493 1493 1493 1493 1493 1493 1493 1493 1493 1493 1493 1493 1493 1493 1493 1493 1493 1493 1493 1493 1493 1493 1493 1493 1493 1493 1493 1493 1493 1493 1493 1493 1493 1493 1493 1493 1493 1493 1493 1493 1493 1493 1493 1493 1493 1493 1493 1493 1493 1493 1493 1493 1493 1493 1493 1493 1493 1493 1493 1493 1493 1493 1493 1493 1493 1493 1493 1493 1493 1493 1493 1493 1493 1493 1493 1493 1493 1493 1493 1493 1493 1493 1493 1493 1493 1493 1493 1493 1493 1493 1493 1493 1493 1493 1493 1493 1493 1493 1493 1493 1493 1493 1493 1493 1493 1493 1493 1493 1493 1493 1493 1493 1493 1493 1493 1493 1493 1493 1493 1493 1493 1493 1493 1493 1493 1493 1493 1493 1493 1493 1493 1493 1493 1493 1493 1493 1493 1493 1493 1493 1493 1493 1493 1493 1493 1493 1493 1493 1493 1493 1493 1493 1493 1493 1493 1493 1493 1493 1493 1493 1493 1493 1493 1493 1493 1493 1493 1493 1493 1493 1493 1493 1493 1493 1493 1493 1493 1493 1493 1493 1493 1493 1493 1493 1493 1493 1493 1493 1493 1493 1493 1493 1493 1493 1493 1493 1493 1493 1493 1493 1493 1493 1493 1493 1493 1493 1493 1493 1493 1493 1493 1493 1493 1493 1493 1493 1493 1493 1493 1493 1493 1493 1493 1493 1493 1493 1493 1493 1493 1493 1493 1493 1493 1493 1493 1493 1493 1493 1493 1493 1493 1493 1493 1493 1493 1493 1493 1493 1493 1493 1493 1493 1493 1493 1493 1493 1493 1493 1493 1493 1493 1493 1493 1493 1493 1493 1493 1493 1493 1493 1493 1493 1493 1493 1493 1493 1493 1493 1493 1493 1493 1493 1493 1493 1493 1493 1493 1493 1493 1493 1493 1493 1493 1493 1493 1493 1493 1493 1493 1493 1493 1493 1493 1493 1493 1493 
6968 6410 6053 5742 5504 5294 5071 4883 4722 4545 4402 4224 4045 3879 3717 3574 3457 3337 3225 3135 3047 2960 2881 2801 2721 2651 2604 2561 2522 2484 2439 2391 2348 2307 2275 2248 2225 2205 2182 2159 2136 2113 2094 2081 2064 2040 2016 1978 1946 1909 1879 1857 1821 1815 1806 1793 1785 1773 1767 1759 1749 1740 1730 1722 1719 1713 1707 1703 1697 1691 1691 1685 1682 1681 1678 1676 1676 1676 1675 1673 1671 1668 1665 1654 1654 1646 1643 1636 1636 1636 1633 1623 1619 1619 1617 1612 1612 1609 1602 1583 1563 1556 1554 1554 1554 1550 1550 1550 1546 1546 1545 1543 1543 1543 1541 1541 1541 1540 1539 1539 1539 1538 1538 1538 1537 1536 1536 1536 1536 1536 1536 1536 1536 1536 1535 1535 1534 1520 1520 1520 1520 1520 1520 1520 1520 1520 1520 1520 1520 1520 1520 1520 1520 1520 1520 1520 1520 1520 1520 1520 1520 1520 1520 1520 1520 1520 1520 1520 1520 1520 1520 1520 1520 1520 1520 1520 1520 1520 1520 1520 1520 1520 1520 1520 1520 1520 1520 1520 1520 1520 1520 1520 1520 1520 1520 1520 1520 1520 1520 1520 1520 1520 1520 1520 1520 1520 1520 1520 1520 1520 1520 1520 1520 1520 1520 1520 1520 1520 1520 1520 1520 1520 1520 1520 1520 1520 1520 1520 1520 1520 1520 1520 1520 1520 1520 1520 1520 1520 1520 1520 1520 1520 1520 1520 1520 1520 1520 1520 1520 1520 1520 1520 1520 1520 1520 1520 1520 1520 1520 1520 1520 1520 1520 1520 1520 1520 1520 1520 1520 1520 1520 1520 1520 1520 1520 1520 1520 1520 1520 1520 1520 1520 1520 1520 1520 1520 1520 1520 1520 1520 1520 1520 1520 1520 1520 1520 1520 1520 1520 1520 1520 1520 1520 1520 1520 1520 1520 1520 1520 1520 1520 1520 1520 1520 1520 1520 1520 1520 1520 1519 1519 1519 1516 1515 1512 1506 1500 1500 1500 1498 1497 1493 1493 1493 1493 1493 1493 1493 1493 1493 1493 1493 1493 1493 1493 1493 1493 1493 1493 1493 1493 1493 1493 1493 1493 1493 1493 1493 1493 1493 1493 1493 1493 1493 1493 1493 1493 1493 1493 1493 1493 1493 1493 1493 1493 1493 1493 1493 1493 1493 1493 1493 1493 1493 1493 1493 1493 1493 1493 1493 1493 1493 1493 1493 1493 1493 1493 1493 1493 1493 1493 1493 1493 1493 1493 1493 1493 1493 1493 1493 1493 1493 1493 1493 1493 1493 1493 1493 1493 1493 1493 1493 1493 1493 1493 1493 1493 1493 1493 1493 1493 1493 1493 1493 1493 1493 1493 1493 1493 1493 1493 1493 1493 1493 1493 1493 1493 1493 1493 1493 1493 1493 1493 1493 1493 1493 1493 1493 1493 1493 1493 1493 1493 1493 1493 1493 1493 1493 1493 1493 1493 1493 1493 1493 1493 1493 1493 1493 1493 1493 1493 1493 1493 1493 1493 1493 1493 1493 1493 1493 1493 1493 1493 1493 1493 1493 1493 1493 1493 1493 1493 1493 1493 1493 1493 1493 1493 1493 1493 1493 1493 1493 1493 1493 1493 1493 1493 1493 1493 1493 1493 1493 1493 1493 1493 1493 1493 1493 1493 1493 1493 1493 1493 1493 1493 1493 1493 1493 1493 1493 1493 1493 1493 1493 1493 1493 1493 1493 1493 1493 1493 1493 1493 1493 1493 1493 1493 1493 1493 1493 1493 1493 1493 1493 1493 1493 1493 1493 1493 1493 1493 1493 1493 1493 1493 1493 1493 1493 1493 1493 1493 1493 1493 1493 1493 1493 1493 1493 1493 1493 1493 1493 1493 1493 1493 1493 1493 1493 1493 1493 1493 1493 1493 1493 1493 1493 1493 1493 1493 1493 1493 1493 1493 1493 1493 1493 1493 1493 1493 1493 1493 1493 1493 1493 1493 1493 1493 1493 1493 1493 1493 1493 1493 1493 1493 1493 1493 1493 1493 1493 1493 1493 1493 1493 1493 1493 1493 1493 1493 1493 1493 1493 1493 1493 1493 1493 1493 1493 1493 1493 1493 1493 1493 1493 1493 1493 1493 1493 1493 1493 1493 1493 1493 1493 1493 1493 1493 1493 1493 1493 1493 1493 1493 1493 1493 1493 1493 1493 1493 1493 1493 1493 1493 1493 1493 1493 1493 1493 1493 1493 1493 1493 1493 1493 1493 1493 1493 1493 1493 1493 1493 1493 1493 1493 1493 1493 1493 1493 1493 1493 1493 1493 1493 1493 1493 1493 1493 1493 1493 1493 1493 1493 1493 1493 1493 1493 1493 1493 1493 1493 1493 1493 1493 1493 1493 1493 1493 1493 1493 1493 1493 1493 1493 1493 1493 1493 1493 1493 1493 1493 1493 1493 1493 1493 1493 1493 1493 1493 1493 1493 1493 1493 1493 1493 1493 1493 1493 1493 1493 1493 1493 1493 1493 1493 1493 1493 1493 1493 1493 1493 1493 1493 1493 1493 1493 1493 1493 1493 1493 1493 1493 1493 1493 1493 1493 1493 1493 1493 1493 1493 1493 1493 1493 1493 1493 1493 1493 1493 1493 1493 1493 1493 1493 1493 1493 1493 1493 1493 1493 1493 1493 1493 1493 1493 1493 1493 1493 1493 1493 1493 1493 1493 1493 1493 1493 1493 1493 1493 1493 1493 1493 1493 1493 1493 1493 1493 1493 1493 1493 1493 1493 1493 1493 1493 1493 1493 1493 1493 1493 1493 1493 1493 1493 1493 1493 1493 1493 1493 1493 1493 1493 1493 1493 1493 1493 1493 1493 1493 1493 1493 1493 1493 1493 1493 1493 1493 1493 1493 1493 1493 1493 1493 1493 1493 1493 1493 1493 1493 1493 1493 1493 1493 1493 1493 1493 1493 1493 1493 1493 1493 1493 1493 1493 1493 1493 1493 1493 1493 1493 1493 1493 1493 1493 1493 1493 1493 1493 1493 1493 1493 1493 1493 1493 1493 1493 1493 1493 1493 1493 1493 1493 1493 1493 1493 1493 1493 1493 1493 1493 1493 1493 1493 1493 1493 1493 1493 1493 1493 1493 1493 1493 1493 1493 1493 1493 1493 1493 1493 1493 1493 1493 1493 1493 1493 1493 1493 1493 1493 1493 1493 1493 1493 1493 1493 1493 1493 1493 1493 1493 1493 1493 1493 1493 1493 1493 1493 1493 1493 1493 1493 1493 1493 1493 1493 1493 1493 1493 1493 1493 1493 1493 1493 1493 1493 1493 1493 1493 1493 1493 1493 1493 1493 1493 1493 1493 1493 1493 1493 1493 1493 1493 1493 1493 1493 1493 1493 1493 1493 1493 1493 1493 1493 1493 1493 1493 1493 1493 1493 1493 1493 1493 1493 1493 1493 1493 1493 1493 1493 1493 1493 1493 1493 1493 1493 1493 1493 1493 1493 1493 1493 1493 1493 1493 1493 1493 1493 1493 1493 1493 1493 1493 1493 1493 1493 1493 1493 1493 1493 1493 1493 1493 1493 1493 1493 1493 1493 1493 1493 1493 1493 1493 1493 1493 1493 1493 1493 1493 1493 1493 1493 1493 1493 1493 1493 1493 1493 1493 1493 1493 1493 1493 1493 1493 1493 1493 1493 1493 1493 1493 1493 1493 1493 1493 1493 1493 1493 1493 1493 1493 1493 1493 1493 1493 1493 1493 1493 1493 1493 1493 1493 1493 1493 1493 1493 1493 1493 1493 1493 1493 1493 1493 1493 1493 1493 1493 1493 1493 1493 1493 1493 1493 1493 1493 1493 1493 1493 1493 1493 1493 1493 1493 1493 1493 1493 1493 1493 1493 1493 1493 1493 1493 1493 1493 1493 1493 1493 1493 1493 1493 1493 1493 1493 1493 1493 1493 1493 1493 1493 1493 1493 1493 1493 1493 1493 1493 1493 1493 1493 1493 1493 1493 1493 1493 1493 1493 1493 1493 1493 1493 1493 1493 1493 1493 1493 1493 1493 1493 1493 1493 1493 1493 1493 1493 1493 1493 1493 1493 1493 1493 1493 1493 1493 1493 1493 1493 1493 1493 1493 1493 1493 1493 1493 1493 1493 1493 1493 1493 1493 1493 1493 1493 1493 1493 1493 1493 1493 1493 1493 1493 1493 1493 1493 1493 1493 1493 1493 1493 1493 1493 1493 1493 1493 1493 1493 1493 1493 1493 1493 1493 1493 1493 1493 1493 1493 1493 1493 1493 1493 1493 1493 1493 1493 1493 1493 1493 1493 1493 1493 1493 1493 1493 1493 1493 1493 1493 1493 1493 1493 1493 1493 1493 1493 1493 1493 1493 1493 1493 1493 1493 1493 1493 1493 1493 1493 1493 1493 1493 1493 1493 1493 1493 1493 1493 1493 1493 1493 1493 1493 1493 1493 1493 1493 1493 1493 1493 1493 1493 1493 1493 1493 1493 1493 1493 1493 1493 1493 1493 1493 1493 1493 1493 1493 1493 1493 1493 1493 1493 1493 1493 1493 1493 1493 1493 1493 1493 1493 1493 1493 1493 1493 1493 1493 1493 1493 1493 1493 1493 1493 1493 1493 1493 1493 1493 1493 1493 1493 1493 1493 1493 1493 1493 1493 1493 1493 1493 1493 1493 1493 1493 1493 1493 1493 1493 1493 1493 1493 1493 1493 1493 1493 1493 1493 1493 1493 1493 1493 1493 1493 1493 1493 1493 1493 1493 1493 1493 1493 1493 1493 1493 1493 1493 1493 1493 1493 1493 1493 1493 1493 1493 1493 1493 1493 1493 1493 1493 1493 1493 1493 1493 1493 1493 1493 1493 1493 1493 1493 1493 1493 1493 1493 